65 71 78 34 35 77 
72 75 22 54 24 80 
92 42 15 87 57 97 
95 98 16 86 91 100 
31 88 7 
12 76 79 3 68 
62 11 90 10 
59 5 99 94 96 
36 47 19 8 46 17 
2 21 73 41 56 74 58 
82 18 84 60 89 
45 83 61 85 37 93 
63 64 49 48 
39 23 67 55 4 25 
14 44 38 43 13 
27 69 30 20 32 70 
33 51 9 66 1 
52 6 
40 53 26 
28 29 81 50 
